COLUMNS

passenger_count
pickup_ID
dropoff_ID
request_time_sec
pickup_district
LDuals
IDuals
vehicle_ID
pick_position
drop_position
REQUESTS_INFO
1      716       626       68325     189       191       191       2         1         4         
3      715       917       68338     131       204       204       22        1         2         
2      628       573       68305     189       215       215       68        1         2         
1      534       827       68303     199       208       208       99        1         2         
1      662       719       68330     131       213       213       157       1         3         
1      577       550       68344     189       189       186       162       1         3         
1      553       937       68358     189       132       132       173       1         3         
4      716       460       68321     189       223       223       181       1         2         
1      662       549       68363     131       180       180       195       1         2         
3      630       460       68349     189       150       156       284       1         3         
1      572       668       68369     131       157       167       314       1         3         
2      699       355       68347     290       161       161       479       1         3         
1      391       481       68344     52        154       154       552       1         2         
1      434       287       68348     52        168       168       572       1         2         
1      669       790       68347     280       220       220       617       1         3         
1      439       310       68331     189       171       171       639       1         2         
1      669       625       68369     280       198       198       640       1         2         
1      535       355       68367     189       133       133       709       1         2         
1      655       523       68358     189       153       153       815       1         2         
3      554       664       68350     189       136       139       866       1         2         
1      399       293       68367     168       124       124       889       1         2         
1      694       505       68360     189       178       178       902       1         3         
4      649       303       68230     189       305       316       931       1         2         
1      463       390       68317     168       155       163       955       1         3         
1      464       328       68343     168       161       161       987       1         3         
3      766       1107      68354     290       138       127       1021      1         3         
1      510       816       68341     199       138       138       1077      1         2         
1      643       662       68343     131       207       207       1098      1         3         
3      644       804       68360     131       193       193       1098      2         4         
3      691       937       68368     131       170       173       1192      1         3         
2      727       676       68352     290       113       113       1195      1         2         
1      723       839       68346     290       157       159       1198      1         3         
1      35        556       68361     98        121       121       1206      1         4         
2      461       695       68342     189       179       179       1208      1         2         
2      676       742       68257     189       229       231       1309      1         2         
3      663       556       68329     131       225       225       1333      1         2         
2      736       983       68368     131       188       188       1343      1         3         
1      508       650       68362     199       138       148       1350      1         2         
3      550       259       68359     189       124       134       1370      1         3         
1      354       294       68323     119       157       157       1374      1         2         
2      645       746       68367     280       160       160       1376      1         4         
1      715       893       68340     131       202       202       1412      1         2         
3      645       760       68300     280       228       228       1414      1         2         
1      571       442       68358     52        155       165       1444      1         2         
1      721       896       68355     290       143       143       1449      1         2         
1      737       652       68305     189       209       209       1474      1         2         
2      482       477       68364     189       175       175       1508      1         2         
1      663       669       68286     131       268       268       1549      1         2         
1      619       602       68324     131       223       233       1571      1         2         
1      675       693       68346     189       156       156       1574      1         3         
1      439       600       68363     189       139       139       1591      1         3         
1      803       643       68358     291       128       128       1667      1         3         
1      924       950       68348     290       113       113       1673      1         2         
1      373       669       68349     119       125       125       1767      1         2         
1      600       782       68362     280       142       146       1770      1         3         
1      715       842       68333     131       209       209       1801      1         3         
1      648       811       68356     189       141       141       1857      1         3         
1      458       599       68363     52        113       113       1899      1         3         
1      723       970       68365     290       138       140       1901      1         4         
1      735       826       68350     131       183       183       1908      1         2         
4      333       326       68341     119       151       151       1917      1         2         
1      716       747       68333     189       171       171       1928      1         3         
1      688       892       68356     131       193       193       1931      1         3         
1      668       841       68342     280       174       174       1942      1         5         
1      693       527       68361     280       185       185       2048      1         3         
1      438       368       68356     100       154       154       2066      1         2         
1      691       387       68355     131       151       151       2089      1         3         
4      743       504       68319     290       187       186       2131      1         2         
1      484       556       68369     189       103       100       2148      1         2         
2      716       669       68310     189       234       234       2212      1         2         
3      481       312       68351     189       185       194       2244      1         2         
3      715       917       68338     131       204       204       2245      1         2         
1      959       857       68365     291       108       108       2251      1         3         
2      576       605       68316     189       217       217       2335      1         2         
3      528       1010      68289     52        251       261       2399      1         2         
1      947       812       68370     290       0         0         0         0         0         
1      671       841       68370     280       0         0         0         0         0         
3      367       313       68370     299       0         0         0         0         0         
2      1187      722       68370     291       0         0         0         0         0         
1      578       760       68370     189       0         0         0         0         0         
1      847       329       68370     291       0         0         0         0         0         
1      456       436       68370     52        0         0         0         0         0         
3      387       656       68370     299       0         0         0         0         0         
1      325       229       68370     299       0         0         0         0         0         
3      387       656       68370     299       0         0         0         0         0         
1      743       864       68371     290       0         0         0         0         0         
1      654       792       68371     189       0         0         0         0         0         
1      410       651       68371     52        0         0         0         0         0         
1      947       294       68371     290       0         0         0         0         0         
3      556       506       68371     199       0         0         0         0         0         
1      694       99        68371     189       0         0         0         0         0         
3      609       950       68371     189       0         0         0         0         0         
1      417       178       68371     100       0         0         0         0         0         
1      631       652       68372     189       0         0         0         0         0         
1      913       290       68372     291       0         0         0         0         0         
2      505       290       68372     52        0         0         0         0         0         
1      881       926       68372     290       0         0         0         0         0         
1      177       333       68372     207       0         0         0         0         0         
1      509       458       68372     199       0         0         0         0         0         
2      718       724       68372     189       0         0         0         0         0         
3      1090      841       68372     291       0         0         0         0         0         
3      1090      841       68372     291       0         0         0         0         0         
1      533       669       68373     199       0         0         0         0         0         
1      675       220       68373     189       0         0         0         0         0         
1      533       396       68373     199       0         0         0         0         0         
1      946       504       68373     290       0         0         0         0         0         
1      663       697       68373     131       0         0         0         0         0         
1      412       172       68374     52        0         0         0         0         0         
2      811       699       68374     290       0         0         0         0         0         
3      811       699       68374     290       0         0         0         0         0         
1      545       526       68374     52        0         0         0         0         0         
1      596       364       68374     131       0         0         0         0         0         
2      926       1218      68374     290       0         0         0         0         0         
1      720       746       68374     290       0         0         0         0         0         
1      392       1168      68374     52        0         0         0         0         0         
2      246       414       68374     266       0         0         0         0         0         
1      647       745       68374     280       0         0         0         0         0         
1      371       237       68375     52        0         0         0         0         0         
2      694       603       68375     189       0         0         0         0         0         
3      616       549       68375     131       0         0         0         0         0         
1      889       884       68375     290       0         0         0         0         0         
3      616       549       68375     131       0         0         0         0         0         
1      35        632       68375     98        0         0         0         0         0         
1      333       480       68376     119       0         0         0         0         0         
1      532       337       68376     199       0         0         0         0         0         
3      498       230       68376     52        0         0         0         0         0         
3      498       230       68376     52        0         0         0         0         0         
2      289       290       68376     127       0         0         0         0         0         
1      720       857       68377     290       0         0         0         0         0         
1      744       605       68377     290       0         0         0         0         0         
2      332       191       68378     87        0         0         0         0         0         
3      881       903       68378     290       0         0         0         0         0         
4      743       813       68378     290       0         0         0         0         0         
1      849       1154      68378     291       0         0         0         0         0         
1      419       1264      68379     168       0         0         0         0         0         
1      927       810       68379     290       0         0         0         0         0         
1      466       655       68379     199       0         0         0         0         0         
1      137       1566      68379     286       0         0         0         0         0         
3      452       372       68379     52        0         0         0         0         0         
1      296       662       68379     277       0         0         0         0         0         
1      356       631       68379     119       0         0         0         0         0         
1      250       826       68379     127       0         0         0         0         0         
3      924       1002      68379     290       0         0         0         0         0         
3      924       1002      68379     290       0         0         0         0         0         
1      760       1066      68380     291       0         0         0         0         0         
2      727       972       68380     290       0         0         0         0         0         
1      192       162       68380     266       0         0         0         0         0         
2      758       767       68380     131       0         0         0         0         0         
1      866       624       68380     290       0         0         0         0         0         
1      312       376       68381     87        0         0         0         0         0         
1      749       499       68381     290       0         0         0         0         0         
1      622       396       68381     280       0         0         0         0         0         
1      436       399       68381     100       0         0         0         0         0         
3      859       765       68381     290       0         0         0         0         0         
3      599       527       68381     280       0         0         0         0         0         
3      841       732       68382     290       0         0         0         0         0         
2      116       326       68382     9         0         0         0         0         0         
2      527       234       68382     52        0         0         0         0         0         
2      276       488       68382     87        0         0         0         0         0         
1      629       1187      68382     189       0         0         0         0         0         
1      354       814       68382     119       0         0         0         0         0         
1      896       654       68382     291       0         0         0         0         0         
3      841       732       68382     290       0         0         0         0         0         
1      645       620       68383     280       0         0         0         0         0         
1      557       527       68383     189       0         0         0         0         0         
1      438       504       68383     100       0         0         0         0         0         
1      576       1374      68383     189       0         0         0         0         0         
1      782       719       68383     291       0         0         0         0         0         
1      894       969       68383     291       0         0         0         0         0         
1      766       871       68383     290       0         0         0         0         0         
1      767       651       68383     290       0         0         0         0         0         
1      663       668       68383     131       0         0         0         0         0         
3      1022      1026      68384     291       0         0         0         0         0         
1      824       1187      68384     291       0         0         0         0         0         
2      1022      1026      68384     291       0         0         0         0         0         
2      623       1042      68384     280       0         0         0         0         0         
1      194       236       68384     207       0         0         0         0         0         
1      906       991       68384     290       0         0         0         0         0         
1      430       62        68384     52        0         0         0         0         0         
2      621       848       68384     280       0         0         0         0         0         
3      621       848       68384     280       0         0         0         0         0         
1      437       177       68385     100       0         0         0         0         0         
1      189       330       68385     286       0         0         0         0         0         
1      1002      873       68385     291       0         0         0         0         0         
1      628       409       68385     189       0         0         0         0         0         
2      827       828       68385     291       0         0         0         0         0         
3      827       828       68385     291       0         0         0         0         0         
1      503       394       68386     52        0         0         0         0         0         
1      397       581       68386     168       0         0         0         0         0         
1      460       719       68386     189       0         0         0         0         0         
1      505       331       68386     52        0         0         0         0         0         
2      119       157       68386     286       0         0         0         0         0         
3      119       157       68386     286       0         0         0         0         0         
1      413       239       68387     52        0         0         0         0         0         
2      294       45        68387     87        0         0         0         0         0         
1      602       196       68387     189       0         0         0         0         0         
1      409       305       68387     52        0         0         0         0         0         
3      697       760       68387     189       0         0         0         0         0         
3      697       760       68387     189       0         0         0         0         0         
3      529       649       68387     189       0         0         0         0         0         
3      529       649       68387     189       0         0         0         0         0         
3      619       476       68387     131       0         0         0         0         0         
2      619       476       68387     131       0         0         0         0         0         
3      716       840       68388     189       0         0         0         0         0         
1      332       395       68388     87        0         0         0         0         0         
1      276       607       68388     87        0         0         0         0         0         
1      527       578       68388     52        0         0         0         0         0         
2      252       249       68388     206       0         0         0         0         0         
1      369       694       68388     52        0         0         0         0         0         
1      443       702       68388     168       0         0         0         0         0         
3      716       840       68388     189       0         0         0         0         0         
1      632       927       68389     189       0         0         0         0         0         
1      886       766       68389     290       0         0         0         0         0         
2      1107      936       68389     291       0         0         0         0         0         
1      873       599       68389     291       0         0         0         0         0         
1      413       457       68389     52        0         0         0         0         0         
1      394       530       68389     100       0         0         0         0         0         
2      1128      850       68389     291       0         0         0         0         0         
1      528       695       68390     52        0         0         0         0         0         
1      529       1025      68390     189       0         0         0         0         0         
1      574       992       68390     189       0         0         0         0         0         
2      531       662       68390     189       0         0         0         0         0         
3      531       662       68390     189       0         0         0         0         0         
3      814       607       68391     290       0         0         0         0         0         
2      536       624       68391     189       0         0         0         0         0         
1      120       1127      68391     57        0         0         0         0         0         
3      814       607       68391     290       0         0         0         0         0         
1      35        727       68391     98        0         0         0         0         0         
1      523       390       68391     52        0         0         0         0         0         
1      408       134       68392     299       0         0         0         0         0         
1      643       652       68392     131       0         0         0         0         0         
1      504       350       68392     52        0         0         0         0         0         
1      826       1147      68392     291       0         0         0         0         0         
3      1026      804       68392     291       0         0         0         0         0         
2      1026      804       68392     291       0         0         0         0         0         
1      712       527       68393     131       0         0         0         0         0         
2      719       253       68393     189       0         0         0         0         0         
2      292       125       68394     87        0         0         0         0         0         
1      313       409       68394     87        0         0         0         0         0         
1      601       508       68395     189       0         0         0         0         0         
1      859       795       68395     290       0         0         0         0         0         
1      526       442       68395     52        0         0         0         0         0         
1      602       605       68395     189       0         0         0         0         0         
1      461       527       68395     189       0         0         0         0         0         
1      937       691       68396     291       0         0         0         0         0         
1      959       894       68396     291       0         0         0         0         0         
1      716       788       68396     189       0         0         0         0         0         
2      720       649       68396     290       0         0         0         0         0         
1      695       580       68396     189       0         0         0         0         0         
1      694       481       68396     189       0         0         0         0         0         
1      325       172       68396     299       0         0         0         0         0         
1      693       252       68396     280       0         0         0         0         0         
1      713       331       68396     131       0         0         0         0         0         
1      654       1291      68396     189       0         0         0         0         0         
1      389       200       68396     299       0         0         0         0         0         
1      527       486       68397     52        0         0         0         0         0         
3      482       310       68398     189       0         0         0         0         0         
1      923       702       68398     290       0         0         0         0         0         
1      416       286       68398     100       0         0         0         0         0         
1      417       214       68398     100       0         0         0         0         0         
1      557       275       68398     189       0         0         0         0         0         
1      717       117       68398     189       0         0         0         0         0         
2      599       1003      68398     280       0         0         0         0         0         
1      368       396       68399     299       0         0         0         0         0         
1      804       702       68399     291       0         0         0         0         0         
2      895       892       68399     291       0         0         0         0         0         
1      440       420       68399     168       0         0         0         0         0         
1      663       1078      68399     131       0         0         0         0         0         
